20 
300 
10.5 14.4 0 0
11.2 14.1 0 -130
18 15.9 10 -14
18.3 13.3 -10 -91
16.5 9.3 10 -14
15.4 11 -10 -97
14.9 13.2 5 -16
16.3 13.3 -5 -95
16.4 17.8 5 -20
15 17.9 5 -11
16.1 19.6 10 -12
15.7 20.6 10 -21
13.2 20.1 10 -16
14.3 15.3 -5 -66
14 5.1 10 -15
11.4 6.7 15 -16
8.3 5 -15 -92
7.9 9.8 10 -24
11.4 12 -5 -111
11.2 17.6 5 -23
10.1 18.7 -5 -87
11.7 20.3 -10 -60
10.2 22.1 10 -15
9.7 23.8 10 -21
10.1 26.4 15 -23
7.4 24 15 -24
8.2 19.9 -15 -63
8.7 17.7 10 -25
8.9 13.6 10 -23
5.6 11.1 10 -20
4.9 18.9 -10 -75
7.3 18.8 10 -13
